NAME 
ROWS
 N  OBJ
 L  R0      
 L  R1      
 E  R2      
 E  R3      
 E  R4      
 E  R5      
 E  R6      
 E  R7      
 E  R8      
 E  R9      
 E  R10     
 E  R11     
 E  R12     
 E  R13     
 E  R14     
 E  R15     
 E  R16     
 E  R17     
 E  R18     
 E  R19     
 E  R20     
 E  R21     
 E  R22     
 E  R23     
 E  R24     
 E  R25     
 E  R26     
COLUMNS
    MARKER    'MARKER'                 'INTORG'
    I0(12)    OBJ       -13
    I0(12)    R0        11
    I0(12)    R1        -28
    I0(12)    R2        7
    I0(12)    R3        17
    I0(12)    R4        12
    I0(12)    R6        17
    I0(12)    R7        10
    I0(12)    R8        -1
    I0(12)    R9        16
    I0(12)    R10       17
    I0(12)    R11       9
    I0(12)    R26       1
    I1(11)    OBJ       102
    I1(11)    R0        -124
    I1(11)    R1        -198
    I1(11)    R2        -1
    I1(11)    R3        7
    I1(11)    R4        17
    I1(11)    R5        -1
    I1(11)    R6        4
    I1(11)    R7        13
    I1(11)    R8        18
    I1(11)    R11       3
    I1(11)    R26       1
    I2(12)    OBJ       -191
    I2(12)    R0        -106
    I2(12)    R1        169
    I2(12)    R2        12
    I2(12)    R3        14
    I2(12)    R4        12
    I2(12)    R5        15
    I2(12)    R6        14
    I2(12)    R7        19
    I2(12)    R8        3
    I2(12)    R9        12
    I2(12)    R11       17
    I2(12)    R26       1
    I3(12)    OBJ       16
    I3(12)    R0        19
    I3(12)    R1        118
    I3(12)    R2        8
    I3(12)    R3        8
    I3(12)    R4        5
    I3(12)    R5        4
    I3(12)    R6        8
    I3(12)    R8        18
    I3(12)    R9        15
    I3(12)    R10       5
    I3(12)    R11       12
    I3(12)    R26       1
    I4(10)    OBJ       192
    I4(10)    R0        60
    I4(10)    R1        -13
    I4(10)    R2        17
    I4(10)    R4        10
    I4(10)    R5        17
    I4(10)    R6        13
    I4(10)    R7        3
    I4(10)    R10       -1
    I4(10)    R11       4
    I4(10)    R26       1
    I5(11)    OBJ       101
    I5(11)    R0        -65
    I5(11)    R1        13
    I5(11)    R2        6
    I5(11)    R3        5
    I5(11)    R4        3
    I5(11)    R6        11
    I5(11)    R7        7
    I5(11)    R8        12
    I5(11)    R9        7
    I5(11)    R11       2
    I5(11)    R26       1
    I6(10)    OBJ       -107
    I6(10)    R0        -125
    I6(10)    R1        183
    I6(10)    R4        15
    I6(10)    R5        9
    I6(10)    R7        8
    I6(10)    R8        8
    I6(10)    R9        17
    I6(10)    R10       15
    I6(10)    R11       9
    I6(10)    R26       1
    I7(12)    OBJ       75
    I7(12)    R0        18
    I7(12)    R1        76
    I7(12)    R2        16
    I7(12)    R4        4
    I7(12)    R5        18
    I7(12)    R6        18
    I7(12)    R7        13
    I7(12)    R8        1
    I7(12)    R9        8
    I7(12)    R10       -1
    I7(12)    R11       13
    I7(12)    R26       1
    I8(12)    OBJ       -97
    I8(12)    R0        -28
    I8(12)    R1        173
    I8(12)    R2        5
    I8(12)    R3        7
    I8(12)    R4        11
    I8(12)    R5        2
    I8(12)    R6        12
    I8(12)    R7        10
    I8(12)    R9        14
    I8(12)    R10       19
    I8(12)    R11       16
    I8(12)    R26       1
    I9(10)    OBJ       86
    I9(10)    R0        101
    I9(10)    R1        174
    I9(10)    R2        11
    I9(10)    R3        4
    I9(10)    R4        14
    I9(10)    R5        11
    I9(10)    R8        1
    I9(10)    R10       4
    I9(10)    R11       12
    I9(10)    R26       1
    MARKER    'MARKER'                 'INTEND'
    C10(20)   R0        -9
    C10(20)   R1        8
    C10(20)   R3        15
    C10(20)   R4        17
    C10(20)   R5        17
    C10(20)   R7        5
    C10(20)   R9        12
    C10(20)   R10       2
    C10(20)   R11       14
    C10(20)   R12       1
    C10(20)   R13       12
    C10(20)   R14       2
    C10(20)   R15       8
    C10(20)   R16       9
    C10(20)   R17       5
    C10(20)   R19       9
    C10(20)   R20       12
    C10(20)   R21       -1
    C10(20)   R22       16
    C10(20)   R24       15
    C11(19)   OBJ       4
    C11(19)   R0        -9
    C11(19)   R1        2
    C11(19)   R3        17
    C11(19)   R4        11
    C11(19)   R9        19
    C11(19)   R10       16
    C11(19)   R11       16
    C11(19)   R12       18
    C11(19)   R14       5
    C11(19)   R15       9
    C11(19)   R16       2
    C11(19)   R17       8
    C11(19)   R19       1
    C11(19)   R20       3
    C11(19)   R21       15
    C11(19)   R22       9
    C11(19)   R23       12
    C11(19)   R24       14
    C11(19)   R25       1
    C12(17)   OBJ       6
    C12(17)   R0        -9
    C12(17)   R1        -3
    C12(17)   R3        12
    C12(17)   R4        19
    C12(17)   R6        15
    C12(17)   R7        15
    C12(17)   R9        8
    C12(17)   R10       16
    C12(17)   R11       13
    C12(17)   R13       7
    C12(17)   R15       13
    C12(17)   R18       13
    C12(17)   R19       7
    C12(17)   R20       11
    C12(17)   R21       -1
    C12(17)   R22       12
    C12(17)   R25       15
    C13(20)   OBJ       -9
    C13(20)   R0        4
    C13(20)   R1        -5
    C13(20)   R3        9
    C13(20)   R4        9
    C13(20)   R5        15
    C13(20)   R6        13
    C13(20)   R8        11
    C13(20)   R10       15
    C13(20)   R12       11
    C13(20)   R13       11
    C13(20)   R14       7
    C13(20)   R15       14
    C13(20)   R16       2
    C13(20)   R19       5
    C13(20)   R20       8
    C13(20)   R21       3
    C13(20)   R22       14
    C13(20)   R23       10
    C13(20)   R24       4
    C13(20)   R25       7
    C14(21)   OBJ       4
    C14(21)   R0        1
    C14(21)   R1        -9
    C14(21)   R2        19
    C14(21)   R3        17
    C14(21)   R4        16
    C14(21)   R5        4
    C14(21)   R6        11
    C14(21)   R7        10
    C14(21)   R8        8
    C14(21)   R10       2
    C14(21)   R11       12
    C14(21)   R13       18
    C14(21)   R15       19
    C14(21)   R16       19
    C14(21)   R17       7
    C14(21)   R18       7
    C14(21)   R19       19
    C14(21)   R20       13
    C14(21)   R21       12
    C14(21)   R22       3
    C14(21)   R23       2
    C15(23)   OBJ       4
    C15(23)   R0        2
    C15(23)   R1        -1
    C15(23)   R2        17
    C15(23)   R3        1
    C15(23)   R4        19
    C15(23)   R5        14
    C15(23)   R6        12
    C15(23)   R7        19
    C15(23)   R8        13
    C15(23)   R9        1
    C15(23)   R10       2
    C15(23)   R12       16
    C15(23)   R13       3
    C15(23)   R14       15
    C15(23)   R16       18
    C15(23)   R17       12
    C15(23)   R18       19
    C15(23)   R20       -1
    C15(23)   R21       -1
    C15(23)   R22       1
    C15(23)   R23       12
    C15(23)   R24       8
    C15(23)   R25       11
    C16(20)   OBJ       4
    C16(20)   R0        -5
    C16(20)   R1        -10
    C16(20)   R3        12
    C16(20)   R4        18
    C16(20)   R5        8
    C16(20)   R8        15
    C16(20)   R9        18
    C16(20)   R10       2
    C16(20)   R11       18
    C16(20)   R12       4
    C16(20)   R13       2
    C16(20)   R14       3
    C16(20)   R15       16
    C16(20)   R16       17
    C16(20)   R17       11
    C16(20)   R19       12
    C16(20)   R20       8
    C16(20)   R22       17
    C16(20)   R23       15
    C16(20)   R25       1
    C17(21)   OBJ       -6
    C17(21)   R0        2
    C17(21)   R1        -4
    C17(21)   R2        15
    C17(21)   R3        14
    C17(21)   R4        19
    C17(21)   R5        8
    C17(21)   R6        15
    C17(21)   R7        14
    C17(21)   R8        15
    C17(21)   R9        5
    C17(21)   R10       15
    C17(21)   R11       -1
    C17(21)   R13       17
    C17(21)   R15       13
    C17(21)   R16       11
    C17(21)   R17       14
    C17(21)   R19       7
    C17(21)   R21       15
    C17(21)   R22       17
    C17(21)   R24       10
    C17(21)   R25       8
    C18(22)   OBJ       -5
    C18(22)   R0        -2
    C18(22)   R1        -7
    C18(22)   R2        9
    C18(22)   R3        2
    C18(22)   R6        11
    C18(22)   R7        6
    C18(22)   R8        19
    C18(22)   R10       8
    C18(22)   R11       1
    C18(22)   R12       2
    C18(22)   R13       7
    C18(22)   R14       17
    C18(22)   R15       4
    C18(22)   R16       6
    C18(22)   R17       2
    C18(22)   R19       17
    C18(22)   R20       4
    C18(22)   R21       8
    C18(22)   R22       5
    C18(22)   R23       19
    C18(22)   R24       14
    C18(22)   R25       10
    C19(22)   OBJ       -2
    C19(22)   R0        8
    C19(22)   R1        -1
    C19(22)   R2        11
    C19(22)   R3        6
    C19(22)   R4        10
    C19(22)   R6        13
    C19(22)   R8        1
    C19(22)   R9        17
    C19(22)   R10       3
    C19(22)   R12       6
    C19(22)   R14       8
    C19(22)   R15       -1
    C19(22)   R16       14
    C19(22)   R17       10
    C19(22)   R18       12
    C19(22)   R19       15
    C19(22)   R20       14
    C19(22)   R21       13
    C19(22)   R22       11
    C19(22)   R23       10
    C19(22)   R24       18
    C19(22)   R25       4
    C20(17)   OBJ       -10
    C20(17)   R0        7
    C20(17)   R1        -5
    C20(17)   R2        3
    C20(17)   R3        4
    C20(17)   R4        18
    C20(17)   R8        6
    C20(17)   R12       12
    C20(17)   R13       19
    C20(17)   R14       11
    C20(17)   R15       2
    C20(17)   R16       9
    C20(17)   R17       11
    C20(17)   R18       4
    C20(17)   R19       5
    C20(17)   R20       8
    C20(17)   R21       9
    C20(17)   R25       19
    C21(25)   OBJ       9
    C21(25)   R0        1
    C21(25)   R1        -8
    C21(25)   R2        5
    C21(25)   R3        14
    C21(25)   R4        3
    C21(25)   R5        2
    C21(25)   R6        2
    C21(25)   R7        11
    C21(25)   R8        -1
    C21(25)   R9        12
    C21(25)   R10       18
    C21(25)   R11       2
    C21(25)   R12       8
    C21(25)   R14       8
    C21(25)   R15       9
    C21(25)   R16       3
    C21(25)   R17       12
    C21(25)   R18       13
    C21(25)   R19       14
    C21(25)   R20       5
    C21(25)   R21       9
    C21(25)   R22       14
    C21(25)   R23       19
    C21(25)   R24       6
    C21(25)   R25       17
    C22(22)   OBJ       7
    C22(22)   R0        1
    C22(22)   R1        3
    C22(22)   R3        16
    C22(22)   R4        2
    C22(22)   R5        16
    C22(22)   R6        5
    C22(22)   R7        2
    C22(22)   R8        19
    C22(22)   R9        4
    C22(22)   R10       13
    C22(22)   R11       9
    C22(22)   R12       1
    C22(22)   R13       -1
    C22(22)   R14       2
    C22(22)   R15       11
    C22(22)   R16       18
    C22(22)   R18       17
    C22(22)   R19       4
    C22(22)   R20       10
    C22(22)   R21       -1
    C22(22)   R22       1
    C22(22)   R23       13
    C23(21)   OBJ       9
    C23(21)   R0        4
    C23(21)   R2        5
    C23(21)   R3        14
    C23(21)   R4        19
    C23(21)   R5        13
    C23(21)   R6        8
    C23(21)   R7        7
    C23(21)   R8        -1
    C23(21)   R9        13
    C23(21)   R10       1
    C23(21)   R11       17
    C23(21)   R12       14
    C23(21)   R13       14
    C23(21)   R14       15
    C23(21)   R15       13
    C23(21)   R17       19
    C23(21)   R20       6
    C23(21)   R21       19
    C23(21)   R22       3
    C23(21)   R24       3
    C23(21)   R25       8
    C24(22)   OBJ       9
    C24(22)   R0        2
    C24(22)   R1        3
    C24(22)   R2        19
    C24(22)   R3        4
    C24(22)   R4        10
    C24(22)   R5        6
    C24(22)   R6        3
    C24(22)   R7        5
    C24(22)   R8        17
    C24(22)   R9        3
    C24(22)   R10       6
    C24(22)   R11       16
    C24(22)   R12       5
    C24(22)   R13       18
    C24(22)   R15       19
    C24(22)   R16       4
    C24(22)   R17       15
    C24(22)   R19       16
    C24(22)   R20       16
    C24(22)   R21       16
    C24(22)   R23       13
    C24(22)   R25       2
    C25(1)    R2        1
    C26(1)    R3        1
    C27(1)    R4        1
    C28(1)    R5        1
    C29(1)    R6        1
    C30(1)    R7        1
    C31(1)    R8        1
    C32(1)    R9        1
    C33(1)    R10       1
    C34(1)    R11       1
    C35(1)    R12       1
    C36(1)    R13       1
    C37(1)    R14       1
    C38(1)    R15       1
    C39(1)    R16       1
    C40(1)    R17       1
    C41(1)    R18       1
    C42(1)    R19       1
    C43(1)    R20       1
    C44(1)    R21       1
    C45(1)    R22       1
    C46(1)    R23       1
    C47(1)    R24       1
    C48(1)    R25       1
    C49(1)    R26       1
RHS
    RHS1      R0        -3.3724385964912278e+02
    RHS1      R1        4.9736315789473684e+02
    RHS1      R2        89
    RHS1      R3        80
    RHS1      R4        51
    RHS1      R5        50
    RHS1      R6        88
    RHS1      R7        87
    RHS1      R8        74
    RHS1      R9        82
    RHS1      R10       79
    RHS1      R11       83
    RHS1      R12       55
    RHS1      R13       67
    RHS1      R14       90
    RHS1      R15       81
    RHS1      R16       75
    RHS1      R17       67
    RHS1      R18       52
    RHS1      R19       94
    RHS1      R20       77
    RHS1      R21       93
    RHS1      R22       58
    RHS1      R23       80
    RHS1      R24       76
    RHS1      R25       54
    RHS1      R26       3
BOUNDS
 UP BND1      I0(12)    2
 UP BND1      I1(11)    2
 UP BND1      I2(12)    2
 UP BND1      I3(12)    2
 UP BND1      I4(10)    2
 UP BND1      I5(11)    2
 UP BND1      I6(10)    2
 UP BND1      I7(12)    2
 UP BND1      I8(12)    2
 UP BND1      I9(10)    2
ENDATA
